12 40 6 10
16 16 8 4 11 10 20 11 3 5 16 19 2 13 6 14 9 15 18 20 14 20 12 12 20 16 1 3 17 16 17 3 14 6 3 1 7 2 3 6 
3.7 4.8 4.17 3.73 5.86 4.16 4.71 5.29 3.21 1.18 3.07 0.69 0.84 3.37 3.16 2.01 0.18 1.8 1.67 7.58 5.49 2.91 4.65 4.4 4.38 3.87 4.53 0.23 0.47 6.8 3.24 4.3 6.99 4.54 5.02 0.71 7.82 3.28 0.22 1.75 
3.34 1.22 3.06 3.89 0.44 0.09 5.9 7.47 3.81 3.1 5.97 5.07 7.67 1.32 6.28 2.76 2.28 7.69 2.25 7.78 7.71 1.4 0.49 2.55 3.66 1.71 2.46 1.25 2.93 0.92 7.91 3.02 4.13 0.9 7.3 2.71 0.02 0.51 1.28 5.07 
6.1 3.68 3.44 6.5 2.28 7.89 5.99 5.73 2.47 7.48 2.69 4.07 3.91 2.62 1.03 3.37 7.17 2.16 3.4 0.49 3.46 3.39 6.86 7.46 5.12 2.76 2.24 5.58 3.97 4.19 5.11 3.09 0.41 5 4.1 1.98 2.78 0.61 5.71 7.06 
0.39 7.77 5.97 1.37 7.07 4.64 5.64 6.26 2.74 2.07 3.12 0.02 4.52 1.64 7.77 4.75 2.75 7.06 0.02 2.37 0.2 5.57 0.98 3.16 1.46 6.97 2.33 4.29 7.86 1.4 1.57 5.32 1.45 2.72 4.42 1.63 1.96 7.86 3.89 2.36 
3.23 7.59 7.41 0.6 1.43 6.65 0.3 0.24 4.92 4.08 0.25 5.2 0.65 6.73 7.96 2.4 5.23 1.1 1.47 5.19 7.92 7.68 7.35 5.14 0.97 7.21 4.43 4.38 4.22 5.42 4.65 2.38 0.24 1.04 2.11 2.08 2.66 2.59 5.17 6.26 
5.49 0.03 2.73 6.13 3.88 5.72 7.28 4.13 1.26 5.83 6.69 7.2 2.33 7.15 4.22 5.4 2.17 3.89 5.62 6.15 7.52 0.48 1.11 4.21 4.07 3.88 5.25 7.95 4.84 7.06 1.12 7.31 4.86 6.07 5.9 6.16 6.91 7.4 0.98 4.66 
4 4 4 4 4 4 4 4 4 4 4 4 4 4 4 4 4 4 4 4 4 4 4 4 4 4 4 4 4 4 4 4 4 4 4 4 4 4 4 4 
7.71 4.83 3.06 0.59 2.85 2.19 2.79 2.1 0.12 5.24 1.28 3.81 3.27 6.69 4.28 4.11 0.86 1.28 7.44 1.31 3.44 0.5 5.49 4.49 0.22 1.48 6.55 1.03 4.71 7.16 0.3 0.95 7.5 1.5 7.96 2.03 1.75 1.47 5.58 3.05 
5.74 6.86 7.16 4.01 7.57 4.6 7.37 6.08 3.44 0.81 6.49 3.58 2.73 5.17 0.34 4.91 3.62 2.78 4.93 1.52 2.35 2.13 5.95 2.42 5.76 2.09 2.01 5.48 5.56 3.18 4.91 4.53 2.15 7.28 4.01 4.36 3.05 4.05 7.7 2.36 
2.8 4.67 1.31 1.23 3.05 5.62 0.19 7.82 6.01 5.44 0.21 2.91 1.42 2.5 1.35 7.77 6.69 7.48 6.81 6.7 4.42 6.76 2.79 4.35 7.87 5.8 7.8 5.7 5.44 6.85 0.1 3.66 2.79 4.67 1.22 5.48 0.16 6.79 6.57 7.98 
2.1 1.81 7.27 4.35 0.7 3.9 1.85 7.63 7.79 4.56 1.6 0.24 0.26 5.59 4.92 4.05 0.81 4.96 6.27 6.8 5.01 3.22 4.22 3.91 5.38 1.59 5.23 0.71 2.09 6.7 0.18 5.2 2.36 3.53 5.51 7.78 4.65 3.61 0.59 0.58 
5.4 5.64 2.62 2.46 7.95 6.49 6.91 7.85 5.41 1.91 6.45 5.63 0.46 3.51 6.99 1.23 4.84 2.64 4.11 5.66 6.77 1.03 1.01 2.55 5.36 0.04 4.1 0.88 4.95 5.34 7.19 0.19 7.91 3.56 7.76 3.95 4.35 0.7 1.67 5.02 
1 1 1 1 1 1 1 1 1 1 1 1 1 1 1 1 1 1 1 1 1 1 1 1 1 1 1 1 1 1 1 1 1 1 1 1 1 1 1 1 
1 1 1 1 1 1 1 1 1 1 1 1 1 1 1 1 1 1 1 1 1 1 1 1 1 1 1 1 1 1 1 1 1 1 1 1 1 1 1 1 
1 1 1 1 1 1 1 1 1 1 1 1 1 1 1 1 1 1 1 1 1 1 1 1 1 1 1 1 1 1 1 1 1 1 1 1 1 1 1 1 
1 1 1 1 1 1 1 1 1 1 1 1 1 1 1 1 1 1 1 1 1 1 1 1 1 1 1 1 1 1 1 1 1 1 1 1 1 1 1 1 
1 1 1 1 1 1 1 1 1 1 1 1 1 1 1 1 1 1 1 1 1 1 1 1 1 1 1 1 1 1 1 1 1 1 1 1 1 1 1 1 
1 1 1 1 1 1 1 1 1 1 1 1 1 1 1 1 1 1 1 1 1 1 1 1 1 1 1 1 1 1 1 1 1 1 1 1 1 1 1 1 
1 1 1 1 1 1 1 1 1 1 1 1 1 1 1 1 1 1 1 1 1 1 1 1 1 1 1 1 1 1 1 1 1 1 1 1 1 1 1 1 
1 1 1 1 1 1 1 1 1 1 1 1 1 1 1 1 1 1 1 1 1 1 1 1 1 1 1 1 1 1 1 1 1 1 1 1 1 1 1 1 
1 1 1 1 1 1 1 1 1 1 1 1 1 1 1 1 1 1 1 1 1 1 1 1 1 1 1 1 1 1 1 1 1 1 1 1 1 1 1 1 
1 1 1 1 1 1 1 1 1 1 1 1 1 1 1 1 1 1 1 1 1 1 1 1 1 1 1 1 1 1 1 1 1 1 1 1 1 1 1 1 
1 1 1 1 1 1 1 1 1 1 1 1 1 1 1 1 1 1 1 1 1 1 1 1 1 1 1 1 1 1 1 1 1 1 1 1 1 1 1 1 
1 1 1 1 1 1 1 1 1 1 1 1 1 1 1 1 1 1 1 1 1 1 1 1 1 1 1 1 1 1 1 1 1 1 1 1 1 1 1 1 
0.01 0.01 0.01 0.01 0.01 0.01 0.01 0.01 0.01 0.01 0.01 0.01 0.01 0.01 0.01 0.01 0.01 0.01 0.01 0.01 0.01 0.01 0.01 0.01 0.01 0.01 0.01 0.01 0.01 0.01 0.01 0.01 0.01 0.01 0.01 0.01 0.01 0.01 0.01 0.01 
0.02 0.02 0.02 0.02 0.02 0.02 0.02 0.02 0.02 0.02 0.02 0.02 0.02 0.02 0.02 0.02 0.02 0.02 0.02 0.02 0.02 0.02 0.02 0.02 0.02 0.02 0.02 0.02 0.02 0.02 0.02 0.02 0.02 0.02 0.02 0.02 0.02 0.02 0.02 0.02 
0.03 0.03 0.03 0.03 0.03 0.03 0.03 0.03 0.03 0.03 0.03 0.03 0.03 0.03 0.03 0.03 0.03 0.03 0.03 0.03 0.03 0.03 0.03 0.03 0.03 0.03 0.03 0.03 0.03 0.03 0.03 0.03 0.03 0.03 0.03 0.03 0.03 0.03 0.03 0.03 
0.04 0.04 0.04 0.04 0.04 0.04 0.04 0.04 0.04 0.04 0.04 0.04 0.04 0.04 0.04 0.04 0.04 0.04 0.04 0.04 0.04 0.04 0.04 0.04 0.04 0.04 0.04 0.04 0.04 0.04 0.04 0.04 0.04 0.04 0.04 0.04 0.04 0.04 0.04 0.04 
0.05 0.05 0.05 0.05 0.05 0.05 0.05 0.05 0.05 0.05 0.05 0.05 0.05 0.05 0.05 0.05 0.05 0.05 0.05 0.05 0.05 0.05 0.05 0.05 0.05 0.05 0.05 0.05 0.05 0.05 0.05 0.05 0.05 0.05 0.05 0.05 0.05 0.05 0.05 0.05 
0.06 0.06 0.06 0.06 0.06 0.06 0.06 0.06 0.06 0.06 0.06 0.06 0.06 0.06 0.06 0.06 0.06 0.06 0.06 0.06 0.06 0.06 0.06 0.06 0.06 0.06 0.06 0.06 0.06 0.06 0.06 0.06 0.06 0.06 0.06 0.06 0.06 0.06 0.06 0.06 
0.07 0.07 0.07 0.07 0.07 0.07 0.07 0.07 0.07 0.07 0.07 0.07 0.07 0.07 0.07 0.07 0.07 0.07 0.07 0.07 0.07 0.07 0.07 0.07 0.07 0.07 0.07 0.07 0.07 0.07 0.07 0.07 0.07 0.07 0.07 0.07 0.07 0.07 0.07 0.07 
0.2 0.2 0.2 0.2 0.2 0.2 0.2 0.2 0.2 0.2 0.2 0.2 0.2 0.2 0.2 0.2 0.2 0.2 0.2 0.2 0.2 0.2 0.2 0.2 0.2 0.2 0.2 0.2 0.2 0.2 0.2 0.2 0.2 0.2 0.2 0.2 0.2 0.2 0.2 0.2 
0.4 0.4 0.4 0.4 0.4 0.4 0.4 0.4 0.4 0.4 0.4 0.4 0.4 0.4 0.4 0.4 0.4 0.4 0.4 0.4 0.4 0.4 0.4 0.4 0.4 0.4 0.4 0.4 0.4 0.4 0.4 0.4 0.4 0.4 0.4 0.4 0.4 0.4 0.4 0.4 
0.6 0.6 0.6 0.6 0.6 0.6 0.6 0.6 0.6 0.6 0.6 0.6 0.6 0.6 0.6 0.6 0.6 0.6 0.6 0.6 0.6 0.6 0.6 0.6 0.6 0.6 0.6 0.6 0.6 0.6 0.6 0.6 0.6 0.6 0.6 0.6 0.6 0.6 0.6 0.6 
0.8 0.8 0.8 0.8 0.8 0.8 0.8 0.8 0.8 0.8 0.8 0.8 0.8 0.8 0.8 0.8 0.8 0.8 0.8 0.8 0.8 0.8 0.8 0.8 0.8 0.8 0.8 0.8 0.8 0.8 0.8 0.8 0.8 0.8 0.8 0.8 0.8 0.8 0.8 0.8 
1 1 1 1 1 1 1 1 1 1 1 1 1 1 1 1 1 1 1 1 1 1 1 1 1 1 1 1 1 1 1 1 1 1 1 1 1 1 1 1 
